c Fichier DIMACS CNF pour un puzzle NoriNori de taille 6x6
p cnf 36 127
c Règle 2: Les cellules colorées ne peuvent pas se toucher par les côtés
-1 -2 0
-1 -7 0
-2 -3 0
-2 -8 0
-3 -4 0
-3 -9 0
-4 -5 0
-4 -10 0
-5 -6 0
-5 -11 0
-6 -12 0
-7 -8 0
-7 -13 0
-8 -9 0
-8 -14 0
-9 -10 0
-9 -15 0
-10 -11 0
-10 -16 0
-11 -12 0
-11 -17 0
-12 -18 0
-13 -14 0
-13 -19 0
-14 -15 0
-14 -20 0
-15 -16 0
-15 -21 0
-16 -17 0
-16 -22 0
-17 -18 0
-17 -23 0
-18 -24 0
-19 -20 0
-19 -25 0
-20 -21 0
-20 -26 0
-21 -22 0
-21 -27 0
-22 -23 0
-22 -28 0
-23 -24 0
-23 -29 0
-24 -30 0
-25 -26 0
-25 -31 0
-26 -27 0
-26 -32 0
-27 -28 0
-27 -33 0
-28 -29 0
-28 -34 0
-29 -30 0
-29 -35 0
-30 -36 0
-31 -32 0
-32 -33 0
-33 -34 0
-34 -35 0
-35 -36 0
c Règle 1: Chaque région doit contenir exactement 2 cellules colorées
27 33 34 28 35 36 0
-27 -33 -34 0
-27 -33 -28 0
-27 -33 -35 0
-27 -33 -36 0
-27 -34 -28 0
-27 -34 -35 0
-27 -34 -36 0
-27 -28 -35 0
-27 -28 -36 0
-27 -35 -36 0
-33 -34 -28 0
-33 -34 -35 0
-33 -34 -36 0
-33 -28 -35 0
-33 -28 -36 0
-33 -35 -36 0
-34 -28 -35 0
-34 -28 -36 0
-34 -35 -36 0
-28 -35 -36 0
22 21 15 14 16 10 0
-22 -21 -15 0
-22 -21 -14 0
-22 -21 -16 0
-22 -21 -10 0
-22 -15 -14 0
-22 -15 -16 0
-22 -15 -10 0
-22 -14 -16 0
-22 -14 -10 0
-22 -16 -10 0
-21 -15 -14 0
-21 -15 -16 0
-21 -15 -10 0
-21 -14 -16 0
-21 -14 -10 0
-21 -16 -10 0
-15 -14 -16 0
-15 -14 -10 0
-15 -16 -10 0
-14 -16 -10 0
8 9 2 0
-8 -9 -2 0
17 23 29 11 0
-17 -23 -29 0
-17 -23 -11 0
-17 -29 -11 0
-23 -29 -11 0
6 12 5 4 3 0
-6 -12 -5 0
-6 -12 -4 0
-6 -12 -3 0
-6 -5 -4 0
-6 -5 -3 0
-6 -4 -3 0
-12 -5 -4 0
-12 -5 -3 0
-12 -4 -3 0
-5 -4 -3 0
19 20 0
13 7 1 0
-13 -7 -1 0
25 26 0
18 24 30 0
-18 -24 -30 0
31 32 0
